Maximize

y_0 + y_1 + y_2 + y_3


Subject To

a0: x_0_0 + x_0_1 + x_0_2 <= 1
a1: x_1_0 + x_1_1 + x_1_3 <= 1
a2: x_2_0 + x_2_2 + x_2_3 <= 1
a3: x_3_1 + x_3_2 + x_3_3 <= 1
a4: x_4_0 + x_4_1 <= 1
a5: x_5_0 + x_5_2 <= 1
a6: x_6_0 + x_6_3 <= 1
a7: x_7_1 + x_7_2 <= 1
a8: x_8_1 + x_8_3 <= 1
a9: x_9_2 + x_9_3 <= 1
a10: x_10_0 + x_10_1 + x_10_2 <= 1
a11: x_11_0 + x_11_1 + x_11_3 <= 1
a12: x_12_0 + x_12_2 + x_12_3 <= 1
a13: x_13_1 + x_13_2 + x_13_3 <= 1
a14: x_14_0 + x_14_3 <= 1
b0: 24 x_0_0 + 16 x_1_0 + 11 x_2_0 + 15 x_4_0 + 9 x_5_0 + 17 x_6_0 + 15 x_10_0 + 15 x_11_0 + 5 x_12_0 + 9 x_14_0 <= 50
b1: 24 x_0_1 + 16 x_1_1 + 10 x_3_1 + 15 x_4_1 + 19 x_7_1 + 12 x_8_1 + 15 x_10_1 + 15 x_11_1 + 12 x_13_1 <= 50
b2: 24 x_0_2 + 11 x_2_2 + 10 x_3_2 + 9 x_5_2 + 19 x_7_2 + 11 x_9_2 + 15 x_10_2 + 5 x_12_2 + 12 x_13_2 <= 50
b3: 16 x_1_3 + 11 x_2_3 + 10 x_3_3 + 17 x_6_3 + 12 x_8_3 + 11 x_9_3 + 15 x_11_3 + 5 x_12_3 + 12 x_13_3 + 9 x_14_3 <= 50
c0: x_0_0 - y_0 <= 0
c1: x_0_1 - y_1 <= 0
c2: x_0_2 - y_2 <= 0
c3: x_1_0 - y_0 <= 0
c4: x_1_1 - y_1 <= 0
c5: x_1_3 - y_3 <= 0
c6: x_2_0 - y_0 <= 0
c7: x_2_2 - y_2 <= 0
c8: x_2_3 - y_3 <= 0
c9: x_3_1 - y_1 <= 0
c10: x_3_2 - y_2 <= 0
c11: x_3_3 - y_3 <= 0
c12: x_4_0 - y_0 <= 0
c13: x_4_1 - y_1 <= 0
c14: x_5_0 - y_0 <= 0
c15: x_5_2 - y_2 <= 0
c16: x_6_0 - y_0 <= 0
c17: x_6_3 - y_3 <= 0
c18: x_7_1 - y_1 <= 0
c19: x_7_2 - y_2 <= 0
c20: x_8_1 - y_1 <= 0
c21: x_8_3 - y_3 <= 0
c22: x_9_2 - y_2 <= 0
c23: x_9_3 - y_3 <= 0
c24: x_10_0 - y_0 <= 0
c25: x_10_1 - y_1 <= 0
c26: x_10_2 - y_2 <= 0
c27: x_11_0 - y_0 <= 0
c28: x_11_1 - y_1 <= 0
c29: x_11_3 - y_3 <= 0
c30: x_12_0 - y_0 <= 0
c31: x_12_2 - y_2 <= 0
c32: x_12_3 - y_3 <= 0
c33: x_13_1 - y_1 <= 0
c34: x_13_2 - y_2 <= 0
c35: x_13_3 - y_3 <= 0
c36: x_14_0 - y_0 <= 0
c37: x_14_3 - y_3 <= 0
d0: y_0 = 1 -> 24 x_0_0 + 16 x_1_0 + 11 x_2_0 + 15 x_4_0 + 9 x_5_0 + 17 x_6_0 + 15 x_10_0 + 15 x_11_0 + 5 x_12_0 + 9 x_14_0 = 50
d1: y_1 = 1 -> 24 x_0_1 + 16 x_1_1 + 10 x_3_1 + 15 x_4_1 + 19 x_7_1 + 12 x_8_1 + 15 x_10_1 + 15 x_11_1 + 12 x_13_1 = 50
d2: y_2 = 1 -> 24 x_0_2 + 11 x_2_2 + 10 x_3_2 + 9 x_5_2 + 19 x_7_2 + 11 x_9_2 + 15 x_10_2 + 5 x_12_2 + 12 x_13_2 = 50
d3: y_3 = 1 -> 16 x_1_3 + 11 x_2_3 + 10 x_3_3 + 17 x_6_3 + 12 x_8_3 + 11 x_9_3 + 15 x_11_3 + 5 x_12_3 + 12 x_13_3 + 9 x_14_3 = 50




Binary

x_0_0 x_1_0 x_2_0 x_3_0 x_4_0 x_5_0 x_6_0 x_7_0 x_8_0 x_9_0 x_10_0 x_11_0 x_12_0 x_13_0 x_14_0 x_0_1 x_1_1 x_2_1 x_3_1 x_4_1 x_5_1 x_6_1 x_7_1 x_8_1 x_9_1 x_10_1 x_11_1 x_12_1 x_13_1 x_14_1 x_0_2 x_1_2 x_2_2 x_3_2 x_4_2 x_5_2 x_6_2 x_7_2 x_8_2 x_9_2 x_10_2 x_11_2 x_12_2 x_13_2 x_14_2 x_0_3 x_1_3 x_2_3 x_3_3 x_4_3 x_5_3 x_6_3 x_7_3 x_8_3 x_9_3 x_10_3 x_11_3 x_12_3 x_13_3 x_14_3 y_0 y_1 y_2 y_3

 


End
