Maximize

1 x_0 + 5 x_1 + 5 x_2 + 1 x_3 + 2 x_4 + 2 x_5 + 3 x_6 + 3 x_7 + 4 x_8 + 2 x_9


Subject To

a0: x_1 >= 1
a1: x_0 + x_1 + x_4 + x_5 + x_6 + x_9 >= 1
a2: x_0 + x_5 + x_8 >= 1
a3: x_4 + x_6 + x_7 >= 1
a4: x_3 >= 1
a5: x_0 + x_1 + x_2 + x_5 + x_7 + x_8 >= 1
a6: x_2 + x_8 >= 1
a7: x_2 + x_3 + x_4 + x_5 + x_6 + x_7 + x_8 >= 1
b0: 1797.9 x_0 + 1349.5 x_1 + 1033.2 x_2 + 1309.8 x_3 + 1558.6 x_4 + 1675.2 x_5 + 1997.4 x_6 + 1569.4 x_7 + 1967.6 x_8 + 1978.4 x_9 <= 10824
c0: x_0 + x_3 <= 1
c1: x_0 + x_7 <= 1
c2: x_1 + x_7 <= 1
c3: x_1 + x_9 <= 1
c4: x_2 + x_4 <= 1
c5: x_2 + x_6 <= 1
c6: x_2 + x_9 <= 1
c7: x_3 + x_0 <= 1
c8: x_3 + x_9 <= 1
c9: x_4 + x_2 <= 1
c10: x_5 + x_8 <= 1
c11: x_6 + x_2 <= 1
c12: x_6 + x_8 <= 1
c13: x_7 + x_0 <= 1
c14: x_7 + x_1 <= 1
c15: x_8 + x_5 <= 1
c16: x_8 + x_6 <= 1
c17: x_9 + x_1 <= 1
c18: x_9 + x_2 <= 1
c19: x_9 + x_3 <= 1




Binary

x_0 x_1 x_2 x_3 x_4 x_5 x_6 x_7 x_8 x_9

 


End
