Maximize

y_0 + y_1 + y_2


Subject To

a0: x_0_0 + x_0_1 <= 1
a1: x_1_1 + x_1_2 <= 1
a2: x_2_0 + x_2_2 <= 1
a3: x_3_0 + x_3_1 <= 1
a4: x_4_0 + x_4_2 <= 1
a5: x_5_1 + x_5_2 <= 1
a6: x_6_0 + x_6_1 <= 1
a7: x_7_0 + x_7_2 <= 1
a8: x_8_1 + x_8_2 <= 1
a9: x_9_1 <= 1
b0: 16 x_0_0 + 8 x_2_0 + 7 x_3_0 + 8 x_4_0 + 9 x_6_0 + 6 x_7_0 <= 45
b1: 16 x_0_1 + 14 x_1_1 + 7 x_3_1 + 15 x_5_1 + 9 x_6_1 + 40 x_8_1 + 12 x_9_1 <= 50
b2: 14 x_1_2 + 8 x_2_2 + 8 x_4_2 + 15 x_5_2 + 6 x_7_2 + 40 x_8_2 <= 55
c0: x_0_0 - y_0 <= 0
c1: x_0_1 - y_1 <= 0
c2: x_1_1 - y_1 <= 0
c3: x_1_2 - y_2 <= 0
c4: x_2_0 - y_0 <= 0
c5: x_2_2 - y_2 <= 0
c6: x_3_0 - y_0 <= 0
c7: x_3_1 - y_1 <= 0
c8: x_4_0 - y_0 <= 0
c9: x_4_2 - y_2 <= 0
c10: x_5_1 - y_1 <= 0
c11: x_5_2 - y_2 <= 0
c12: x_6_0 - y_0 <= 0
c13: x_6_1 - y_1 <= 0
c14: x_7_0 - y_0 <= 0
c15: x_7_2 - y_2 <= 0
c16: x_8_1 - y_1 <= 0
c17: x_8_2 - y_2 <= 0
c18: x_9_1 - y_1 <= 0
d0: y_0 = 1 -> 16 x_0_0 + 8 x_2_0 + 7 x_3_0 + 8 x_4_0 + 9 x_6_0 + 6 x_7_0 = 45
d1: y_1 = 1 -> 16 x_0_1 + 14 x_1_1 + 7 x_3_1 + 15 x_5_1 + 9 x_6_1 + 40 x_8_1 + 12 x_9_1 = 50
d2: y_2 = 1 -> 14 x_1_2 + 8 x_2_2 + 8 x_4_2 + 15 x_5_2 + 6 x_7_2 + 40 x_8_2 = 55




Binary

x_0_0 x_1_0 x_2_0 x_3_0 x_4_0 x_5_0 x_6_0 x_7_0 x_8_0 x_9_0 x_0_1 x_1_1 x_2_1 x_3_1 x_4_1 x_5_1 x_6_1 x_7_1 x_8_1 x_9_1 x_0_2 x_1_2 x_2_2 x_3_2 x_4_2 x_5_2 x_6_2 x_7_2 x_8_2 x_9_2 y_0 y_1 y_2

 


End
