Maximize

y_0 + y_1 + y_2 + y_3 + y_4


Subject To

a0: x_0_0 + x_0_1 <= 1
a1: x_1_2 + x_1_3 <= 1
a2: x_2_0 + x_2_4 <= 1
a3: x_3_1 + x_3_2 <= 1
a4: x_4_3 + x_4_4 <= 1
a5: x_5_0 + x_5_1 <= 1
a6: x_6_2 + x_6_3 <= 1
a7: x_7_0 + x_7_4 <= 1
a8: x_8_1 + x_8_2 <= 1
a9: x_9_3 + x_9_4 <= 1
a10: x_10_0 + x_10_1 + x_10_2 <= 1
a11: x_11_1 + x_11_2 + x_11_3 <= 1
a12: x_12_1 + x_12_3 + x_12_4 <= 1
a13: x_13_0 + x_13_2 <= 1
a14: x_14_1 + x_14_3 <= 1
a15: x_15_2 + x_15_4 <= 1
a16: x_16_0 + x_16_3 <= 1
a17: x_17_0 + x_17_1 <= 1
a18: x_18_0 + x_18_1 + x_18_2 + x_18_3 <= 1
a19: x_19_1 + x_19_2 + x_19_3 + x_19_4 <= 1
b0: 5 x_0_0 + 3 x_2_0 + 2 x_5_0 + 8 x_7_0 + 6 x_10_0 + 4 x_13_0 + 1 x_16_0 + 2 x_17_0 + 4 x_18_0 <= 20
b1: 5 x_0_1 + 6 x_3_1 + 2 x_5_1 + 9 x_8_1 + 6 x_10_1 + 7 x_11_1 + 3 x_12_1 + 8 x_14_1 + 2 x_17_1 + 4 x_18_1 + 6 x_19_1 <= 20
b2: 4 x_1_2 + 6 x_3_2 + 1 x_6_2 + 9 x_8_2 + 6 x_10_2 + 7 x_11_2 + 4 x_13_2 + 9 x_15_2 + 4 x_18_2 + 6 x_19_2 <= 20
b3: 4 x_1_3 + 7 x_4_3 + 1 x_6_3 + 5 x_9_3 + 7 x_11_3 + 3 x_12_3 + 8 x_14_3 + 1 x_16_3 + 4 x_18_3 + 6 x_19_3 <= 20
b4: 3 x_2_4 + 7 x_4_4 + 8 x_7_4 + 5 x_9_4 + 3 x_12_4 + 9 x_15_4 + 6 x_19_4 <= 20
c0: x_0_0 - y_0 <= 0
c1: x_0_1 - y_1 <= 0
c2: x_1_2 - y_2 <= 0
c3: x_1_3 - y_3 <= 0
c4: x_2_0 - y_0 <= 0
c5: x_2_4 - y_4 <= 0
c6: x_3_1 - y_1 <= 0
c7: x_3_2 - y_2 <= 0
c8: x_4_3 - y_3 <= 0
c9: x_4_4 - y_4 <= 0
c10: x_5_0 - y_0 <= 0
c11: x_5_1 - y_1 <= 0
c12: x_6_2 - y_2 <= 0
c13: x_6_3 - y_3 <= 0
c14: x_7_0 - y_0 <= 0
c15: x_7_4 - y_4 <= 0
c16: x_8_1 - y_1 <= 0
c17: x_8_2 - y_2 <= 0
c18: x_9_3 - y_3 <= 0
c19: x_9_4 - y_4 <= 0
c20: x_10_0 - y_0 <= 0
c21: x_10_1 - y_1 <= 0
c22: x_10_2 - y_2 <= 0
c23: x_11_1 - y_1 <= 0
c24: x_11_2 - y_2 <= 0
c25: x_11_3 - y_3 <= 0
c26: x_12_1 - y_1 <= 0
c27: x_12_3 - y_3 <= 0
c28: x_12_4 - y_4 <= 0
c29: x_13_0 - y_0 <= 0
c30: x_13_2 - y_2 <= 0
c31: x_14_1 - y_1 <= 0
c32: x_14_3 - y_3 <= 0
c33: x_15_2 - y_2 <= 0
c34: x_15_4 - y_4 <= 0
c35: x_16_0 - y_0 <= 0
c36: x_16_3 - y_3 <= 0
c37: x_17_0 - y_0 <= 0
c38: x_17_1 - y_1 <= 0
c39: x_18_0 - y_0 <= 0
c40: x_18_1 - y_1 <= 0
c41: x_18_2 - y_2 <= 0
c42: x_18_3 - y_3 <= 0
c43: x_19_1 - y_1 <= 0
c44: x_19_2 - y_2 <= 0
c45: x_19_3 - y_3 <= 0
c46: x_19_4 - y_4 <= 0
d0: y_0 = 1 -> 5 x_0_0 + 3 x_2_0 + 2 x_5_0 + 8 x_7_0 + 6 x_10_0 + 4 x_13_0 + 1 x_16_0 + 2 x_17_0 + 4 x_18_0 = 20
d1: y_1 = 1 -> 5 x_0_1 + 6 x_3_1 + 2 x_5_1 + 9 x_8_1 + 6 x_10_1 + 7 x_11_1 + 3 x_12_1 + 8 x_14_1 + 2 x_17_1 + 4 x_18_1 + 6 x_19_1 = 20
d2: y_2 = 1 -> 4 x_1_2 + 6 x_3_2 + 1 x_6_2 + 9 x_8_2 + 6 x_10_2 + 7 x_11_2 + 4 x_13_2 + 9 x_15_2 + 4 x_18_2 + 6 x_19_2 = 20
d3: y_3 = 1 -> 4 x_1_3 + 7 x_4_3 + 1 x_6_3 + 5 x_9_3 + 7 x_11_3 + 3 x_12_3 + 8 x_14_3 + 1 x_16_3 + 4 x_18_3 + 6 x_19_3 = 20
d4: y_4 = 1 -> 3 x_2_4 + 7 x_4_4 + 8 x_7_4 + 5 x_9_4 + 3 x_12_4 + 9 x_15_4 + 6 x_19_4 = 20




Binary

x_0_0 x_1_0 x_2_0 x_3_0 x_4_0 x_5_0 x_6_0 x_7_0 x_8_0 x_9_0 x_10_0 x_11_0 x_12_0 x_13_0 x_14_0 x_15_0 x_16_0 x_17_0 x_18_0 x_19_0 x_0_1 x_1_1 x_2_1 x_3_1 x_4_1 x_5_1 x_6_1 x_7_1 x_8_1 x_9_1 x_10_1 x_11_1 x_12_1 x_13_1 x_14_1 x_15_1 x_16_1 x_17_1 x_18_1 x_19_1 x_0_2 x_1_2 x_2_2 x_3_2 x_4_2 x_5_2 x_6_2 x_7_2 x_8_2 x_9_2 x_10_2 x_11_2 x_12_2 x_13_2 x_14_2 x_15_2 x_16_2 x_17_2 x_18_2 x_19_2 x_0_3 x_1_3 x_2_3 x_3_3 x_4_3 x_5_3 x_6_3 x_7_3 x_8_3 x_9_3 x_10_3 x_11_3 x_12_3 x_13_3 x_14_3 x_15_3 x_16_3 x_17_3 x_18_3 x_19_3 x_0_4 x_1_4 x_2_4 x_3_4 x_4_4 x_5_4 x_6_4 x_7_4 x_8_4 x_9_4 x_10_4 x_11_4 x_12_4 x_13_4 x_14_4 x_15_4 x_16_4 x_17_4 x_18_4 x_19_4 y_0 y_1 y_2 y_3 y_4

 


End
